#(C) 2018 by FIZ Karlsruhe - Leibniz Institute for Information Infrastructure.  All rights reserved.
data_253813-ICSD
_database_code_ICSD 253813
_audit_creation_date 2018-02-01
_chemical_name_systematic 'Barium zinc ruthenium(V) oxide (3/1/2/9)'
_chemical_formula_structural 'Ba3 Zn Ru2 O9'
_chemical_formula_sum 'Ba3 O9 Ru2 Zn1'
_chemical_name_structure_type BaFeO2+x
_exptl_crystal_density_diffrn 6.68
_cell_measurement_temperature 295.
_publ_section_title
;
Neutron powder diffraction study of Ba3ZnRu2-xIrxO9 (x=0, 1, 2) with 6H-type
perovskite structure
;
loop_
_citation_id
_citation_journal_full
_citation_year
_citation_journal_volume
_citation_page_first
_citation_page_last
_citation_journal_id_ASTM
primary 'Solid State Sciences' 2015 50 58 64 SSSCFJ
loop_
_publ_author_name
'Beran, P.'
'Ivanov, S.A.'
'Nordblad, P.'
'Middey, S.'
'Nag, A.'
'Sarma, D.D.'
'Ray, S.'
'Mathieu, R.'
_cell_length_a 5.77490(15)
_cell_length_b 5.77490(15)
_cell_length_c 14.18229(53)
_cell_angle_alpha 90.
_cell_angle_beta 90.
_cell_angle_gamma 120.
_cell_volume 409.61
_cell_formula_units_Z 2
_symmetry_space_group_name_H-M 'P 63/m m c'
_symmetry_Int_Tables_number 194
_refine_ls_R_factor_all 0.0201
loop_
_symmetry_equiv_pos_site_id
_symmetry_equiv_pos_as_xyz
1 'x, x-y, -z+1/2'
2 '-x+y, y, -z+1/2'
3 '-y, -x, -z+1/2'
4 '-x+y, -x, -z+1/2'
5 '-y, x-y, -z+1/2'
6 'x, y, -z+1/2'
7 '-x, -x+y, z+1/2'
8 'x-y, -y, z+1/2'
9 'y, x, z+1/2'
10 'x-y, x, z+1/2'
11 'y, -x+y, z+1/2'
12 '-x, -y, z+1/2'
13 '-x, -x+y, -z'
14 'x-y, -y, -z'
15 'y, x, -z'
16 'x-y, x, -z'
17 'y, -x+y, -z'
18 '-x, -y, -z'
19 'x, x-y, z'
20 '-x+y, y, z'
21 '-y, -x, z'
22 '-x+y, -x, z'
23 '-y, x-y, z'
24 'x, y, z'
loop_
_atom_type_symbol
_atom_type_oxidation_number
Ba2+ 2
Zn2+ 2
Ru5+ 5
O2- -2
loop_
_atom_site_label
_atom_site_type_symbol
_atom_site_symmetry_multiplicity
_atom_site_Wyckoff_symbol
_atom_site_fract_x
_atom_site_fract_y
_atom_site_fract_z
_atom_site_B_iso_or_equiv
_atom_site_occupancy
_atom_site_attached_hydrogens
Ba1 Ba2+ 2 b 0 0 0.25 0.39(1) 1. 0
Ba2 Ba2+ 4 f 0.3333 0.6667 0.91186(64) 0.39(1) 1. 0
Zn1 Zn2+ 2 a 0 0 0 0.535(35) 1. 0
Ru1 Ru5+ 4 f 0.3333 0.6667 0.15573(38) 0.439(23) 1. 0
O1 O2- 6 h 0.4853(14) 0.9707(28) 0.25 0.790(18) 1. 0
O2 O2- 12 k 0.1715(14) 0.3430(27) 0.41606(26) 0.841(13) 1. 0
#End of TTdata_253813-ICSD